WARNING: using JuMP.getdual in module Main conflicts with an existing identifier.
1/1 feasible solution given by solution candidate storage, new primal bound 0.000000e+00

presolving:
(round 1, fast)       0 del vars, 0 del conss, 0 add conss, 0 chg bounds, 0 chg sides, 0 chg coeffs, 10001 upgd conss, 0 impls, 0 clqs
(round 2, fast)       0 del vars, 0 del conss, 0 add conss, 46096 chg bounds, 0 chg sides, 0 chg coeffs, 10001 upgd conss, 0 impls, 0 clqs
presolving (3 rounds: 3 fast, 1 medium, 1 exhaustive):
 0 deleted vars, 0 deleted constraints, 0 added constraints, 46097 tightened bounds, 0 added holes, 0 changed sides, 0 changed coefficients
 0 implications, 0 cliques
presolved problem has 15006 variables (0 bin, 0 int, 0 impl, 15006 cont) and 10001 constraints
  10000 constraints of type <linear>
      1 constraints of type <quadratic>
Presolving Time: 474.22
transformed 1/1 original solutions to the transformed problem space

  node  | left  |LP iter|LP it/n| mem |  dualbound   | primalbound  |  gap   
      1 |     0 | 17455 |     - | 129M|-9.721276e+04 | 0.000000e+00 |    Inf 

******************************************************************************
This program contains Ipopt, a library for large-scale nonlinear optimization.
 Ipopt is released as open source code under the Eclipse Public License (EPL).
         For more information visit http://projects.coin-or.org/Ipopt
******************************************************************************

q     1 |     0 | 17455 |     - | 129M|-9.721276e+04 |-9.117303e+04 |   6.62%
y     1 |     0 | 17455 |     - | 129M|-9.721276e+04 |-9.127204e+04 |   6.51%
      1 |     0 | 17455 |     - | 129M|-9.721276e+04 |-9.127204e+04 |   6.51%
      1 |     0 | 17455 |     - | 129M|-9.721276e+04 |-9.127204e+04 |   6.51%
      1 |     2 |192005 |     - | 129M|-9.721276e+04 |-9.127204e+04 |   6.51%
q    20 |    21 |192061 |9189.8 | 145M|-9.720411e+04 |-9.272197e+04 |   4.83%
y    21 |    20 |192061 |8730.3 | 144M|-9.720411e+04 |-9.272610e+04 |   4.83%
    100 |   101 |192250 |1765.6 | 198M|-9.719817e+04 |-9.272610e+04 |   4.82%
    200 |   201 |192444 | 879.3 | 264M|-9.719563e+04 |-9.272610e+04 |   4.82%
    300 |   301 |192646 | 585.9 | 331M|-9.719404e+04 |-9.272610e+04 |   4.82%
    400 |   401 |192848 | 439.6 | 412M|-9.719230e+04 |-9.272610e+04 |   4.82%
    500 |   501 |193046 | 351.9 | 478M|-9.719103e+04 |-9.272610e+04 |   4.82%
    600 |   601 |193251 | 293.5 | 549M|-9.718960e+04 |-9.272610e+04 |   4.81%
    700 |   701 |193463 | 251.8 | 627M|-9.718847e+04 |-9.272610e+04 |   4.81%
  node  | left  |LP iter|LP it/n| mem |  dualbound   | primalbound  |  gap   
    800 |   801 |193683 | 220.6 | 714M|-9.718741e+04 |-9.272610e+04 |   4.81%
    900 |   901 |193897 | 196.3 | 751M|-9.718671e+04 |-9.272610e+04 |   4.81%
   1000 |  1001 |194112 | 176.8 | 847M|-9.718587e+04 |-9.272610e+04 |   4.81%
   1100 |  1101 |194324 | 160.9 | 885M|-9.718556e+04 |-9.272610e+04 |   4.81%
   1200 |  1201 |194539 | 147.7 | 992M|-9.718502e+04 |-9.272610e+04 |   4.81%
   1300 |  1301 |194753 | 136.5 |1030M|-9.718410e+04 |-9.272610e+04 |   4.81%
   1400 |  1401 |194965 | 126.9 |1152M|-9.718375e+04 |-9.272610e+04 |   4.81%
   1500 |  1501 |195180 | 118.6 |1189M|-9.718311e+04 |-9.272610e+04 |   4.81%
   1600 |  1601 |195399 | 111.3 |1226M|-9.718271e+04 |-9.272610e+04 |   4.81%
   1700 |  1701 |195613 | 104.9 |1365M|-9.718229e+04 |-9.272610e+04 |   4.81%
   1800 |  1801 |195828 |  99.2 |1402M|-9.718196e+04 |-9.272610e+04 |   4.81%
   1900 |  1901 |196043 |  94.0 |1439M|-9.718162e+04 |-9.272610e+04 |   4.81%
   2000 |  2001 |196254 |  89.4 |1477M|-9.718143e+04 |-9.272610e+04 |   4.80%
   2100 |  2101 |196466 |  85.3 |1636M|-9.718111e+04 |-9.272610e+04 |   4.80%
   2200 |  2201 |196676 |  81.5 |1673M|-9.718077e+04 |-9.272610e+04 |   4.80%
  node  | left  |LP iter|LP it/n| mem |  dualbound   | primalbound  |  gap   
   2300 |  2301 |196886 |  78.0 |1711M|-9.718034e+04 |-9.272610e+04 |   4.80%
   2400 |  2401 |197117 |  74.9 |1748M|-9.718014e+04 |-9.272610e+04 |   4.80%
   2500 |  2501 |197348 |  72.0 |1932M|-9.717970e+04 |-9.272610e+04 |   4.80%
   2600 |  2601 |197587 |  69.3 |1970M|-9.717940e+04 |-9.272610e+04 |   4.80%
   2700 |  2701 |197828 |  66.8 |2007M|-9.717919e+04 |-9.272610e+04 |   4.80%
   2800 |  2801 |198077 |  64.5 |2044M|-9.717919e+04 |-9.272610e+04 |   4.80%
   2900 |  2901 |198329 |  62.4 |2081M|-9.717879e+04 |-9.272610e+04 |   4.80%
   3000 |  3001 |198577 |  60.4 |2295M|-9.717856e+04 |-9.272610e+04 |   4.80%
   3100 |  3101 |198822 |  58.5 |2332M|-9.717832e+04 |-9.272610e+04 |   4.80%
   3200 |  3201 |199078 |  56.8 |2369M|-9.717817e+04 |-9.272610e+04 |   4.80%
   3300 |  3301 |199334 |  55.1 |2406M|-9.717806e+04 |-9.272610e+04 |   4.80%
   3400 |  3401 |199592 |  53.6 |2443M|-9.717784e+04 |-9.272610e+04 |   4.80%
   3500 |  3501 |199849 |  52.1 |2480M|-9.717770e+04 |-9.272610e+04 |   4.80%
   3600 |  3601 |200107 |  50.8 |2729M|-9.717743e+04 |-9.272610e+04 |   4.80%
   3700 |  3701 |200366 |  49.4 |2766M|-9.717721e+04 |-9.272610e+04 |   4.80%
  node  | left  |LP iter|LP it/n| mem |  dualbound   | primalbound  |  gap   
   3800 |  3801 |200623 |  48.2 |2803M|-9.717706e+04 |-9.272610e+04 |   4.80%
   3900 |  3901 |200879 |  47.0 |2840M|-9.717685e+04 |-9.272610e+04 |   4.80%
   4000 |  4001 |201141 |  45.9 |2878M|-9.717683e+04 |-9.272610e+04 |   4.80%
   4100 |  4101 |201406 |  44.9 |2915M|-9.717650e+04 |-9.272610e+04 |   4.80%
   4200 |  4201 |201662 |  43.9 |2952M|-9.717631e+04 |-9.272610e+04 |   4.80%
   4300 |  4301 |201931 |  42.9 |3243M|-9.717610e+04 |-9.272610e+04 |   4.80%
   4400 |  4401 |202196 |  42.0 |3280M|-9.717610e+04 |-9.272610e+04 |   4.80%
   4500 |  4501 |202468 |  41.1 |3317M|-9.717574e+04 |-9.272610e+04 |   4.80%
   4600 |  4601 |202738 |  40.3 |3354M|-9.717562e+04 |-9.272610e+04 |   4.80%
   4700 |  4701 |203001 |  39.5 |3392M|-9.717562e+04 |-9.272610e+04 |   4.80%
   4800 |  4801 |203272 |  38.7 |3429M|-9.717549e+04 |-9.272610e+04 |   4.80%
   4900 |  4901 |203539 |  38.0 |3466M|-9.717528e+04 |-9.272610e+04 |   4.80%
   5000 |  5001 |203802 |  37.3 |3503M|-9.717493e+04 |-9.272610e+04 |   4.80%
   5100 |  5101 |204065 |  36.6 |3845M|-9.717488e+04 |-9.272610e+04 |   4.80%
   5200 |  5201 |204337 |  35.9 |3882M|-9.717480e+04 |-9.272610e+04 |   4.80%
  node  | left  |LP iter|LP it/n| mem |  dualbound   | primalbound  |  gap   
   5300 |  5301 |204605 |  35.3 |3919M|-9.717480e+04 |-9.272610e+04 |   4.80%
   5400 |  5401 |204881 |  34.7 |3956M|-9.717456e+04 |-9.272610e+04 |   4.80%
   5500 |  5501 |205150 |  34.1 |3993M|-9.717456e+04 |-9.272610e+04 |   4.80%
   5600 |  5601 |205423 |  33.6 |4030M|-9.717449e+04 |-9.272610e+04 |   4.80%
   5700 |  5701 |205695 |  33.0 |4068M|-9.717445e+04 |-9.272610e+04 |   4.80%
   5800 |  5801 |205966 |  32.5 |4105M|-9.717419e+04 |-9.272610e+04 |   4.80%
   5900 |  5901 |206237 |  32.0 |4142M|-9.717404e+04 |-9.272610e+04 |   4.80%
   6000 |  6001 |206504 |  31.5 |4179M|-9.717401e+04 |-9.272610e+04 |   4.80%
   6100 |  6101 |206779 |  31.0 |4582M|-9.717381e+04 |-9.272610e+04 |   4.80%
   6200 |  6201 |207048 |  30.6 |4619M|-9.717375e+04 |-9.272610e+04 |   4.80%
   6300 |  6301 |207318 |  30.1 |4656M|-9.717367e+04 |-9.272610e+04 |   4.80%
   6400 |  6401 |207583 |  29.7 |4693M|-9.717363e+04 |-9.272610e+04 |   4.80%
   6500 |  6501 |207846 |  29.3 |4730M|-9.717361e+04 |-9.272610e+04 |   4.80%
   6600 |  6601 |208118 |  28.9 |4767M|-9.717351e+04 |-9.272610e+04 |   4.80%
   6700 |  6701 |208391 |  28.5 |4804M|-9.717336e+04 |-9.272610e+04 |   4.80%
  node  | left  |LP iter|LP it/n| mem |  dualbound   | primalbound  |  gap   
   6800 |  6801 |208658 |  28.1 |4841M|-9.717324e+04 |-9.272610e+04 |   4.80%
   6900 |  6901 |208927 |  27.8 |4879M|-9.717315e+04 |-9.272610e+04 |   4.80%
   7000 |  7001 |209196 |  27.4 |4916M|-9.717304e+04 |-9.272610e+04 |   4.80%
   7100 |  7101 |209460 |  27.0 |4953M|-9.717290e+04 |-9.272610e+04 |   4.80%
   7200 |  7201 |209721 |  26.7 |4990M|-9.717290e+04 |-9.272610e+04 |   4.80%
   7300 |  7301 |209989 |  26.4 |5466M|-9.717290e+04 |-9.272610e+04 |   4.80%
   7400 |  7401 |210272 |  26.1 |5503M|-9.717279e+04 |-9.272610e+04 |   4.80%
   7500 |  7501 |210548 |  25.7 |5540M|-9.717278e+04 |-9.272610e+04 |   4.80%
   7600 |  7601 |210824 |  25.4 |5577M|-9.717269e+04 |-9.272610e+04 |   4.80%
   7700 |  7701 |211095 |  25.2 |5615M|-9.717255e+04 |-9.272610e+04 |   4.80%
   7800 |  7801 |211364 |  24.9 |5652M|-9.717252e+04 |-9.272610e+04 |   4.80%
   7900 |  7901 |211640 |  24.6 |5689M|-9.717250e+04 |-9.272610e+04 |   4.80%
   8000 |  8001 |211920 |  24.3 |5726M|-9.717247e+04 |-9.272610e+04 |   4.80%
   8100 |  8101 |212200 |  24.0 |5763M|-9.717242e+04 |-9.272610e+04 |   4.80%
   8200 |  8201 |212469 |  23.8 |5800M|-9.717235e+04 |-9.272610e+04 |   4.80%
  node  | left  |LP iter|LP it/n| mem |  dualbound   | primalbound  |  gap   
   8300 |  8301 |212742 |  23.5 |5837M|-9.717228e+04 |-9.272610e+04 |   4.79%
   8400 |  8401 |213016 |  23.3 |5875M|-9.717220e+04 |-9.272610e+04 |   4.79%
   8500 |  8501 |213297 |  23.0 |5912M|-9.717213e+04 |-9.272610e+04 |   4.79%
   8600 |  8601 |213561 |  22.8 |5949M|-9.717209e+04 |-9.272610e+04 |   4.79%
   8700 |  8701 |213840 |  22.6 |5986M|-9.717192e+04 |-9.272610e+04 |   4.79%
   8800 |  8801 |214103 |  22.3 |6549M|-9.717186e+04 |-9.272610e+04 |   4.79%
   8900 |  8901 |214381 |  22.1 |6586M|-9.717183e+04 |-9.272610e+04 |   4.79%
   9000 |  9001 |214637 |  21.9 |6624M|-9.717177e+04 |-9.272610e+04 |   4.79%
   9100 |  9101 |214902 |  21.7 |6661M|-9.717173e+04 |-9.272610e+04 |   4.79%
   9200 |  9201 |215172 |  21.5 |6698M|-9.717165e+04 |-9.272610e+04 |   4.79%
   9300 |  9301 |215438 |  21.3 |6735M|-9.717161e+04 |-9.272610e+04 |   4.79%
   9400 |  9401 |215720 |  21.1 |6772M|-9.717158e+04 |-9.272610e+04 |   4.79%
   9500 |  9501 |215989 |  20.9 |6809M|-9.717151e+04 |-9.272610e+04 |   4.79%
   9600 |  9601 |216256 |  20.7 |6846M|-9.717134e+04 |-9.272610e+04 |   4.79%
   9700 |  9701 |216538 |  20.5 |6884M|-9.717130e+04 |-9.272610e+04 |   4.79%
  node  | left  |LP iter|LP it/n| mem |  dualbound   | primalbound  |  gap   
   9800 |  9801 |216809 |  20.3 |6921M|-9.717117e+04 |-9.272610e+04 |   4.79%
   9900 |  9901 |217079 |  20.2 |6958M|-9.717117e+04 |-9.272610e+04 |   4.79%
  10000 | 10001 |217367 |  20.0 |6995M|-9.717116e+04 |-9.272610e+04 |   4.79%
  10100 | 10101 |217642 |  19.8 |7032M|-9.717109e+04 |-9.272610e+04 |   4.79%
  10200 | 10201 |217915 |  19.7 |7070M|-9.717108e+04 |-9.272610e+04 |   4.79%
  10300 | 10301 |218189 |  19.5 |7107M|-9.717107e+04 |-9.272610e+04 |   4.79%
  10400 | 10401 |218474 |  19.3 |7144M|-9.717106e+04 |-9.272610e+04 |   4.79%
  10500 | 10501 |218750 |  19.2 |7181M|-9.717099e+04 |-9.272610e+04 |   4.79%
  10600 | 10601 |219032 |  19.0 |7850M|-9.717065e+04 |-9.272610e+04 |   4.79%
  10700 | 10701 |219297 |  18.9 |7887M|-9.717060e+04 |-9.272610e+04 |   4.79%
  10800 | 10801 |219566 |  18.7 |7924M|-9.717054e+04 |-9.272610e+04 |   4.79%
  10900 | 10901 |219828 |  18.6 |7961M|-9.717053e+04 |-9.272610e+04 |   4.79%
  11000 | 11001 |220102 |  18.4 |7998M|-9.717052e+04 |-9.272610e+04 |   4.79%
  11100 | 11101 |220373 |  18.3 |8035M|-9.717049e+04 |-9.272610e+04 |   4.79%
  11200 | 11201 |220638 |  18.1 |8072M|-9.717040e+04 |-9.272610e+04 |   4.79%
  node  | left  |LP iter|LP it/n| mem |  dualbound   | primalbound  |  gap   
  11300 | 11301 |220901 |  18.0 |8110M|-9.717035e+04 |-9.272610e+04 |   4.79%
  11400 | 11401 |221175 |  17.9 |8147M|-9.717032e+04 |-9.272610e+04 |   4.79%
  11500 | 11501 |221449 |  17.7 |8184M|-9.717031e+04 |-9.272610e+04 |   4.79%
  11600 | 11601 |221704 |  17.6 |8221M|-9.717017e+04 |-9.272610e+04 |   4.79%
  11700 | 11701 |221953 |  17.5 |8258M|-9.717003e+04 |-9.272610e+04 |   4.79%
  11800 | 11801 |222200 |  17.4 |8295M|-9.717001e+04 |-9.272610e+04 |   4.79%
  11900 | 11901 |222462 |  17.2 |8333M|-9.717000e+04 |-9.272610e+04 |   4.79%
  12000 | 12001 |222713 |  17.1 |8370M|-9.716992e+04 |-9.272610e+04 |   4.79%
  12100 | 12101 |222966 |  17.0 |8407M|-9.716988e+04 |-9.272610e+04 |   4.79%
  12200 | 12201 |223219 |  16.9 |8444M|-9.716985e+04 |-9.272610e+04 |   4.79%
  12300 | 12301 |223473 |  16.8 |8481M|-9.716984e+04 |-9.272610e+04 |   4.79%
  12400 | 12401 |223726 |  16.6 |8518M|-9.716983e+04 |-9.272610e+04 |   4.79%
  12500 | 12501 |223978 |  16.5 |8555M|-9.716983e+04 |-9.272610e+04 |   4.79%
  12600 | 12601 |224221 |  16.4 |8592M|-9.716949e+04 |-9.272610e+04 |   4.79%
  12700 | 12701 |224478 |  16.3 |9387M|-9.716945e+04 |-9.272610e+04 |   4.79%
  node  | left  |LP iter|LP it/n| mem |  dualbound   | primalbound  |  gap   
  12800 | 12801 |224734 |  16.2 |9425M|-9.716945e+04 |-9.272610e+04 |   4.79%
  12900 | 12901 |224990 |  16.1 |9462M|-9.716943e+04 |-9.272610e+04 |   4.79%
  13000 | 13001 |225244 |  16.0 |9499M|-9.716943e+04 |-9.272610e+04 |   4.79%
  13100 | 13101 |225499 |  15.9 |9536M|-9.716941e+04 |-9.272610e+04 |   4.79%
  13200 | 13201 |225753 |  15.8 |9573M|-9.716941e+04 |-9.272610e+04 |   4.79%
  13300 | 13301 |226008 |  15.7 |9610M|-9.716928e+04 |-9.272610e+04 |   4.79%
  13400 | 13401 |226250 |  15.6 |9647M|-9.716928e+04 |-9.272610e+04 |   4.79%
  13500 | 13501 |226503 |  15.5 |9684M|-9.716906e+04 |-9.272610e+04 |   4.79%
  13600 | 13601 |226751 |  15.4 |9722M|-9.716906e+04 |-9.272610e+04 |   4.79%
  13700 | 13701 |227007 |  15.3 |9759M|-9.716903e+04 |-9.272610e+04 |   4.79%
  13800 | 13801 |227265 |  15.2 |9796M|-9.716887e+04 |-9.272610e+04 |   4.79%
  13900 | 13901 |227516 |  15.1 |9833M|-9.716876e+04 |-9.272610e+04 |   4.79%
  14000 | 14001 |227766 |  15.0 |9870M|-9.716876e+04 |-9.272610e+04 |   4.79%
  14100 | 14101 |228015 |  14.9 |9908M|-9.716876e+04 |-9.272610e+04 |   4.79%
  14200 | 14201 |228265 |  14.8 |9945M|-9.716875e+04 |-9.272610e+04 |   4.79%
  node  | left  |LP iter|LP it/n| mem |  dualbound   | primalbound  |  gap   
  14300 | 14301 |228523 |  14.8 |9982M|-9.716866e+04 |-9.272610e+04 |   4.79%
  14400 | 14401 |228763 |  14.7 |  10G|-9.716866e+04 |-9.272610e+04 |   4.79%
  14500 | 14501 |229007 |  14.6 |  10G|-9.716849e+04 |-9.272610e+04 |   4.79%
  14600 | 14601 |229256 |  14.5 |  10G|-9.716849e+04 |-9.272610e+04 |   4.79%
  14700 | 14701 |229511 |  14.4 |  10G|-9.716835e+04 |-9.272610e+04 |   4.79%
  14800 | 14801 |229755 |  14.3 |  10G|-9.716831e+04 |-9.272610e+04 |   4.79%
  14900 | 14901 |230007 |  14.3 |  10G|-9.716826e+04 |-9.272610e+04 |   4.79%
  15000 | 15001 |230264 |  14.2 |  10G|-9.716813e+04 |-9.272610e+04 |   4.79%
  15100 | 15101 |230504 |  14.1 |  10G|-9.716813e+04 |-9.272610e+04 |   4.79%
  15200 | 15201 |230761 |  14.0 |  11G|-9.716812e+04 |-9.272610e+04 |   4.79%
  15300 | 15301 |231007 |  14.0 |  11G|-9.716812e+04 |-9.272610e+04 |   4.79%
  15400 | 15401 |231259 |  13.9 |  11G|-9.716812e+04 |-9.272610e+04 |   4.79%
  15500 | 15501 |231524 |  13.8 |  11G|-9.716799e+04 |-9.272610e+04 |   4.79%
  15600 | 15601 |231769 |  13.7 |  11G|-9.716789e+04 |-9.272610e+04 |   4.79%
  15700 | 15701 |232006 |  13.7 |  11G|-9.716789e+04 |-9.272610e+04 |   4.79%
  node  | left  |LP iter|LP it/n| mem |  dualbound   | primalbound  |  gap   
  15800 | 15801 |232267 |  13.6 |  11G|-9.716784e+04 |-9.272610e+04 |   4.79%
  15900 | 15901 |232513 |  13.5 |  11G|-9.716784e+04 |-9.272610e+04 |   4.79%
  16000 | 16001 |232765 |  13.5 |  11G|-9.716778e+04 |-9.272610e+04 |   4.79%
  16100 | 16101 |233004 |  13.4 |  11G|-9.716774e+04 |-9.272610e+04 |   4.79%
  16200 | 16201 |233257 |  13.3 |  11G|-9.716772e+04 |-9.272610e+04 |   4.79%
  16300 | 16301 |233518 |  13.3 |  11G|-9.716765e+04 |-9.272610e+04 |   4.79%
  16400 | 16401 |233752 |  13.2 |  11G|-9.716763e+04 |-9.272610e+04 |   4.79%
  16500 | 16501 |233997 |  13.1 |  11G|-9.716745e+04 |-9.272610e+04 |   4.79%
  16600 | 16601 |234238 |  13.1 |  11G|-9.716745e+04 |-9.272610e+04 |   4.79%
  16700 | 16701 |234484 |  13.0 |  11G|-9.716734e+04 |-9.272610e+04 |   4.79%
  16800 | 16801 |234740 |  12.9 |  11G|-9.716733e+04 |-9.272610e+04 |   4.79%
  16900 | 16901 |234980 |  12.9 |  11G|-9.716729e+04 |-9.272610e+04 |   4.79%
  17000 | 17001 |235215 |  12.8 |  11G|-9.716721e+04 |-9.272610e+04 |   4.79%
  17100 | 17101 |235462 |  12.7 |  11G|-9.716720e+04 |-9.272610e+04 |   4.79%
  17200 | 17201 |235704 |  12.7 |  11G|-9.716720e+04 |-9.272610e+04 |   4.79%
  node  | left  |LP iter|LP it/n| mem |  dualbound   | primalbound  |  gap   
  17300 | 17301 |235953 |  12.6 |  12G|-9.716708e+04 |-9.272610e+04 |   4.79%
  17400 | 17401 |236196 |  12.6 |  12G|-9.716708e+04 |-9.272610e+04 |   4.79%
  17500 | 17501 |236439 |  12.5 |  12G|-9.716697e+04 |-9.272610e+04 |   4.79%
  17600 | 17601 |236683 |  12.5 |  12G|-9.716684e+04 |-9.272610e+04 |   4.79%
  17700 | 17701 |236929 |  12.4 |  12G|-9.716684e+04 |-9.272610e+04 |   4.79%
  17800 | 17801 |237180 |  12.3 |  12G|-9.716684e+04 |-9.272610e+04 |   4.79%
  17900 | 17901 |237430 |  12.3 |  12G|-9.716684e+04 |-9.272610e+04 |   4.79%
  18000 | 18001 |237664 |  12.2 |  12G|-9.716684e+04 |-9.272610e+04 |   4.79%
  18100 | 18101 |237907 |  12.2 |  12G|-9.716684e+04 |-9.272610e+04 |   4.79%
  18200 | 18201 |238139 |  12.1 |  13G|-9.716675e+04 |-9.272610e+04 |   4.79%
  18300 | 18301 |238374 |  12.1 |  13G|-9.716675e+04 |-9.272610e+04 |   4.79%
  18400 | 18401 |238609 |  12.0 |  13G|-9.716675e+04 |-9.272610e+04 |   4.79%
  18500 | 18501 |238850 |  12.0 |  13G|-9.716673e+04 |-9.272610e+04 |   4.79%
  18600 | 18601 |239088 |  11.9 |  13G|-9.716668e+04 |-9.272610e+04 |   4.79%
  18700 | 18701 |239328 |  11.9 |  13G|-9.716655e+04 |-9.272610e+04 |   4.79%
  node  | left  |LP iter|LP it/n| mem |  dualbound   | primalbound  |  gap   
  18800 | 18801 |239562 |  11.8 |  13G|-9.716649e+04 |-9.272610e+04 |   4.79%
  18900 | 18901 |239802 |  11.8 |  13G|-9.716649e+04 |-9.272610e+04 |   4.79%
  19000 | 19001 |240044 |  11.7 |  13G|-9.716637e+04 |-9.272610e+04 |   4.79%
  19100 | 19101 |240282 |  11.7 |  13G|-9.716637e+04 |-9.272610e+04 |   4.79%
  19200 | 19201 |240508 |  11.6 |  13G|-9.716637e+04 |-9.272610e+04 |   4.79%
  19300 | 19301 |240736 |  11.6 |  13G|-9.716625e+04 |-9.272610e+04 |   4.79%
  19400 | 19401 |240956 |  11.5 |  13G|-9.716625e+04 |-9.272610e+04 |   4.79%
  19500 | 19501 |241181 |  11.5 |  13G|-9.716615e+04 |-9.272610e+04 |   4.79%
  19600 | 19601 |241419 |  11.4 |  13G|-9.716615e+04 |-9.272610e+04 |   4.79%
  19700 | 19701 |241640 |  11.4 |  13G|-9.716615e+04 |-9.272610e+04 |   4.79%
  19800 | 19801 |241865 |  11.3 |  14G|-9.716612e+04 |-9.272610e+04 |   4.79%
  19900 | 19901 |242096 |  11.3 |  14G|-9.716611e+04 |-9.272610e+04 |   4.79%
  20000 | 20001 |242332 |  11.2 |  14G|-9.716602e+04 |-9.272610e+04 |   4.79%
  20100 | 20101 |242558 |  11.2 |  14G|-9.716601e+04 |-9.272610e+04 |   4.79%
  20200 | 20201 |242791 |  11.2 |  14G|-9.716601e+04 |-9.272610e+04 |   4.79%
  node  | left  |LP iter|LP it/n| mem |  dualbound   | primalbound  |  gap   
  20300 | 20301 |243024 |  11.1 |  14G|-9.716597e+04 |-9.272610e+04 |   4.79%
  20400 | 20401 |243255 |  11.1 |  14G|-9.716593e+04 |-9.272610e+04 |   4.79%
  20500 | 20501 |243479 |  11.0 |  14G|-9.716580e+04 |-9.272610e+04 |   4.79%
  20600 | 20601 |243694 |  11.0 |  14G|-9.716580e+04 |-9.272610e+04 |   4.79%
  20700 | 20701 |243928 |  10.9 |  14G|-9.716580e+04 |-9.272610e+04 |   4.79%
  20800 | 20801 |244160 |  10.9 |  14G|-9.716568e+04 |-9.272610e+04 |   4.79%
  20900 | 20901 |244381 |  10.9 |  14G|-9.716568e+04 |-9.272610e+04 |   4.79%
  21000 | 21001 |244610 |  10.8 |  14G|-9.716568e+04 |-9.272610e+04 |   4.79%
  21100 | 21101 |244835 |  10.8 |  14G|-9.716567e+04 |-9.272610e+04 |   4.79%
  21200 | 21201 |245056 |  10.7 |  14G|-9.716567e+04 |-9.272610e+04 |   4.79%
  21300 | 21301 |245271 |  10.7 |  14G|-9.716567e+04 |-9.272610e+04 |   4.79%
  21400 | 21401 |245502 |  10.7 |  14G|-9.716567e+04 |-9.272610e+04 |   4.79%
  21500 | 21501 |245722 |  10.6 |  14G|-9.716567e+04 |-9.272610e+04 |   4.79%
  21600 | 21601 |245942 |  10.6 |  14G|-9.716567e+04 |-9.272610e+04 |   4.79%
  21700 | 21701 |246168 |  10.5 |  14G|-9.716567e+04 |-9.272610e+04 |   4.79%
  node  | left  |LP iter|LP it/n| mem |  dualbound   | primalbound  |  gap   
  21800 | 21801 |246395 |  10.5 |  14G|-9.716567e+04 |-9.272610e+04 |   4.79%
  21900 | 21901 |246627 |  10.5 |  16G|-9.716567e+04 |-9.272610e+04 |   4.79%
  22000 | 22001 |246847 |  10.4 |  16G|-9.716567e+04 |-9.272610e+04 |   4.79%
  22100 | 22101 |247063 |  10.4 |  16G|-9.716567e+04 |-9.272610e+04 |   4.79%
  22200 | 22201 |247283 |  10.4 |  16G|-9.716567e+04 |-9.272610e+04 |   4.79%
  22300 | 22301 |247511 |  10.3 |  16G|-9.716567e+04 |-9.272610e+04 |   4.79%
  22400 | 22401 |247737 |  10.3 |  16G|-9.716567e+04 |-9.272610e+04 |   4.79%
  22500 | 22501 |247950 |  10.2 |  16G|-9.716567e+04 |-9.272610e+04 |   4.79%
  22600 | 22601 |248170 |  10.2 |  16G|-9.716567e+04 |-9.272610e+04 |   4.79%
  22700 | 22701 |248395 |  10.2 |  16G|-9.716567e+04 |-9.272610e+04 |   4.79%
  22800 | 22801 |248633 |  10.1 |  16G|-9.716515e+04 |-9.272610e+04 |   4.79%
  22900 | 22901 |248845 |  10.1 |  16G|-9.716515e+04 |-9.272610e+04 |   4.79%
  23000 | 23001 |249071 |  10.1 |  16G|-9.716515e+04 |-9.272610e+04 |   4.79%
  23100 | 23101 |249300 |  10.0 |  16G|-9.716515e+04 |-9.272610e+04 |   4.79%
  23200 | 23201 |249528 |  10.0 |  16G|-9.716515e+04 |-9.272610e+04 |   4.79%
  node  | left  |LP iter|LP it/n| mem |  dualbound   | primalbound  |  gap   
  23300 | 23301 |249765 |  10.0 |  16G|-9.716515e+04 |-9.272610e+04 |   4.79%
  23400 | 23401 |250002 |   9.9 |  16G|-9.716515e+04 |-9.272610e+04 |   4.79%
  23500 | 23501 |250238 |   9.9 |  16G|-9.716515e+04 |-9.272610e+04 |   4.79%
  23600 | 23601 |250472 |   9.9 |  16G|-9.716515e+04 |-9.272610e+04 |   4.79%
  23700 | 23701 |250703 |   9.8 |  16G|-9.716515e+04 |-9.272610e+04 |   4.79%
  23800 | 23801 |250933 |   9.8 |  16G|-9.716515e+04 |-9.272610e+04 |   4.79%
  23900 | 23901 |251163 |   9.8 |  16G|-9.716515e+04 |-9.272610e+04 |   4.79%
  24000 | 24001 |251401 |   9.7 |  16G|-9.716515e+04 |-9.272610e+04 |   4.79%
  24100 | 24101 |251646 |   9.7 |  16G|-9.716515e+04 |-9.272610e+04 |   4.79%
  24200 | 24201 |251872 |   9.7 |  16G|-9.716515e+04 |-9.272610e+04 |   4.79%
  24300 | 24301 |252100 |   9.7 |  17G|-9.716515e+04 |-9.272610e+04 |   4.79%
  24400 | 24401 |252352 |   9.6 |  17G|-9.716515e+04 |-9.272610e+04 |   4.79%
  24500 | 24501 |252586 |   9.6 |  17G|-9.716515e+04 |-9.272610e+04 |   4.79%
  24600 | 24601 |252822 |   9.6 |  17G|-9.716515e+04 |-9.272610e+04 |   4.79%
  24700 | 24701 |253057 |   9.5 |  17G|-9.716515e+04 |-9.272610e+04 |   4.79%
  node  | left  |LP iter|LP it/n| mem |  dualbound   | primalbound  |  gap   
  24800 | 24801 |253290 |   9.5 |  17G|-9.716515e+04 |-9.272610e+04 |   4.79%
  24900 | 24901 |253540 |   9.5 |  17G|-9.716515e+04 |-9.272610e+04 |   4.79%
  25000 | 25001 |253791 |   9.5 |  17G|-9.716515e+04 |-9.272610e+04 |   4.79%
  25100 | 25101 |254024 |   9.4 |  17G|-9.716515e+04 |-9.272610e+04 |   4.79%
  25200 | 25201 |254260 |   9.4 |  17G|-9.716515e+04 |-9.272610e+04 |   4.79%
  25300 | 25301 |254498 |   9.4 |  17G|-9.716515e+04 |-9.272610e+04 |   4.79%
  25400 | 25401 |254724 |   9.3 |  17G|-9.716515e+04 |-9.272610e+04 |   4.79%
  25500 | 25501 |254971 |   9.3 |  17G|-9.716440e+04 |-9.272610e+04 |   4.79%
  25600 | 25601 |255197 |   9.3 |  17G|-9.716440e+04 |-9.272610e+04 |   4.79%
  25700 | 25701 |255429 |   9.3 |  17G|-9.716440e+04 |-9.272610e+04 |   4.79%
  25800 | 25801 |255669 |   9.2 |  17G|-9.716440e+04 |-9.272610e+04 |   4.79%
  25900 | 25901 |255904 |   9.2 |  17G|-9.716440e+04 |-9.272610e+04 |   4.79%
  26000 | 26001 |256147 |   9.2 |  17G|-9.716435e+04 |-9.272610e+04 |   4.79%
  26100 | 26101 |256377 |   9.2 |  17G|-9.716435e+04 |-9.272610e+04 |   4.79%
  26200 | 26201 |256612 |   9.1 |  19G|-9.716432e+04 |-9.272610e+04 |   4.79%
  node  | left  |LP iter|LP it/n| mem |  dualbound   | primalbound  |  gap   
  26300 | 26301 |256844 |   9.1 |  19G|-9.716428e+04 |-9.272610e+04 |   4.79%
  26400 | 26401 |257083 |   9.1 |  19G|-9.716428e+04 |-9.272610e+04 |   4.79%
  26500 | 26501 |257329 |   9.1 |  19G|-9.716401e+04 |-9.272610e+04 |   4.79%
  26600 | 26601 |257570 |   9.0 |  19G|-9.716401e+04 |-9.272610e+04 |   4.79%
  26700 | 26701 |257797 |   9.0 |  19G|-9.716401e+04 |-9.272610e+04 |   4.79%
  26800 | 26801 |258028 |   9.0 |  19G|-9.716401e+04 |-9.272610e+04 |   4.79%
  26900 | 26901 |258273 |   9.0 |  19G|-9.716400e+04 |-9.272610e+04 |   4.79%
  27000 | 27001 |258509 |   8.9 |  19G|-9.716389e+04 |-9.272610e+04 |   4.79%
  27100 | 27101 |258751 |   8.9 |  19G|-9.716389e+04 |-9.272610e+04 |   4.79%
  27200 | 27201 |258981 |   8.9 |  19G|-9.716389e+04 |-9.272610e+04 |   4.79%
  27300 | 27301 |259211 |   8.9 |  19G|-9.716389e+04 |-9.272610e+04 |   4.79%
  27400 | 27401 |259451 |   8.8 |  19G|-9.716389e+04 |-9.272610e+04 |   4.79%
  27500 | 27501 |259689 |   8.8 |  19G|-9.716389e+04 |-9.272610e+04 |   4.79%
  27600 | 27601 |259928 |   8.8 |  19G|-9.716389e+04 |-9.272610e+04 |   4.79%
  27700 | 27701 |260154 |   8.8 |  19G|-9.716389e+04 |-9.272610e+04 |   4.79%
  node  | left  |LP iter|LP it/n| mem |  dualbound   | primalbound  |  gap   
  27800 | 27801 |260393 |   8.7 |  19G|-9.716375e+04 |-9.272610e+04 |   4.79%
  27900 | 27901 |260634 |   8.7 |  19G|-9.716375e+04 |-9.272610e+04 |   4.79%
  28000 | 28001 |260881 |   8.7 |  19G|-9.716374e+04 |-9.272610e+04 |   4.79%
  28100 | 28101 |261119 |   8.7 |  19G|-9.716374e+04 |-9.272610e+04 |   4.79%
  28200 | 28201 |261364 |   8.6 |  20G|-9.716374e+04 |-9.272610e+04 |   4.79%
  28300 | 28301 |261599 |   8.6 |  20G|-9.716374e+04 |-9.272610e+04 |   4.79%
  28400 | 28401 |261844 |   8.6 |  20G|-9.716362e+04 |-9.272610e+04 |   4.79%
  28500 | 28501 |262071 |   8.6 |  20G|-9.716362e+04 |-9.272610e+04 |   4.79%
  28600 | 28601 |262311 |   8.6 |  20G|-9.716348e+04 |-9.272610e+04 |   4.79%
  28700 | 28701 |262545 |   8.5 |  20G|-9.716348e+04 |-9.272610e+04 |   4.79%
  28800 | 28801 |262791 |   8.5 |  20G|-9.716345e+04 |-9.272610e+04 |   4.79%
  28900 | 28901 |263022 |   8.5 |  20G|-9.716339e+04 |-9.272610e+04 |   4.79%
  29000 | 29001 |263256 |   8.5 |  20G|-9.716338e+04 |-9.272610e+04 |   4.79%
  29100 | 29101 |263488 |   8.5 |  20G|-9.716330e+04 |-9.272610e+04 |   4.79%
  29200 | 29201 |263731 |   8.4 |  20G|-9.716329e+04 |-9.272610e+04 |   4.79%
  node  | left  |LP iter|LP it/n| mem |  dualbound   | primalbound  |  gap   
  29300 | 29301 |263963 |   8.4 |  20G|-9.716329e+04 |-9.272610e+04 |   4.79%
  29400 | 29401 |264200 |   8.4 |  20G|-9.716324e+04 |-9.272610e+04 |   4.79%
  29500 | 29501 |264438 |   8.4 |  20G|-9.716324e+04 |-9.272610e+04 |   4.79%
  29600 | 29601 |264674 |   8.4 |  20G|-9.716323e+04 |-9.272610e+04 |   4.79%
  29700 | 29701 |264909 |   8.3 |  20G|-9.716323e+04 |-9.272610e+04 |   4.79%
  29800 | 29801 |265148 |   8.3 |  20G|-9.716320e+04 |-9.272610e+04 |   4.79%
  29900 | 29901 |265388 |   8.3 |  20G|-9.716320e+04 |-9.272610e+04 |   4.79%
  30000 | 30001 |265617 |   8.3 |  20G|-9.716320e+04 |-9.272610e+04 |   4.79%
  30100 | 30101 |265852 |   8.3 |  20G|-9.716316e+04 |-9.272610e+04 |   4.79%
  30200 | 30201 |266098 |   8.2 |  20G|-9.716316e+04 |-9.272610e+04 |   4.79%
  30300 | 30301 |266328 |   8.2 |  20G|-9.716312e+04 |-9.272610e+04 |   4.79%
  30400 | 30401 |266576 |   8.2 |  20G|-9.716312e+04 |-9.272610e+04 |   4.79%
  30500 | 30501 |266820 |   8.2 |  20G|-9.716311e+04 |-9.272610e+04 |   4.79%
  30600 | 30601 |267058 |   8.2 |  20G|-9.716296e+04 |-9.272610e+04 |   4.78%
  30700 | 30701 |267296 |   8.1 |  20G|-9.716292e+04 |-9.272610e+04 |   4.78%
  node  | left  |LP iter|LP it/n| mem |  dualbound   | primalbound  |  gap   
  30800 | 30801 |267541 |   8.1 |  20G|-9.716291e+04 |-9.272610e+04 |   4.78%
  30900 | 30901 |267784 |   8.1 |  21G|-9.716282e+04 |-9.272610e+04 |   4.78%
  31000 | 31001 |268013 |   8.1 |  21G|-9.716282e+04 |-9.272610e+04 |   4.78%
  31100 | 31101 |268243 |   8.1 |  21G|-9.716273e+04 |-9.272610e+04 |   4.78%
  31200 | 31201 |268470 |   8.0 |  21G|-9.716273e+04 |-9.272610e+04 |   4.78%
  31300 | 31301 |268714 |   8.0 |  21G|-9.716268e+04 |-9.272610e+04 |   4.78%
  31400 | 31401 |268950 |   8.0 |  21G|-9.716268e+04 |-9.272610e+04 |   4.78%
  31500 | 31501 |269191 |   8.0 |  23G|-9.716263e+04 |-9.272610e+04 |   4.78%
  31600 | 31601 |269425 |   8.0 |  23G|-9.716263e+04 |-9.272610e+04 |   4.78%
  31700 | 31701 |269665 |   8.0 |  23G|-9.716260e+04 |-9.272610e+04 |   4.78%
  31800 | 31801 |269895 |   7.9 |  23G|-9.716260e+04 |-9.272610e+04 |   4.78%
  31900 | 31901 |270127 |   7.9 |  23G|-9.716248e+04 |-9.272610e+04 |   4.78%
  32000 | 32001 |270354 |   7.9 |  23G|-9.716248e+04 |-9.272610e+04 |   4.78%
  32100 | 32101 |270584 |   7.9 |  23G|-9.716248e+04 |-9.272610e+04 |   4.78%
  32200 | 32201 |270826 |   7.9 |  23G|-9.716246e+04 |-9.272610e+04 |   4.78%
  node  | left  |LP iter|LP it/n| mem |  dualbound   | primalbound  |  gap   
  32300 | 32301 |271060 |   7.9 |  23G|-9.716246e+04 |-9.272610e+04 |   4.78%
  32400 | 32401 |271294 |   7.8 |  23G|-9.716246e+04 |-9.272610e+04 |   4.78%
  32500 | 32501 |271525 |   7.8 |  23G|-9.716246e+04 |-9.272610e+04 |   4.78%
  32600 | 32601 |271765 |   7.8 |  23G|-9.716246e+04 |-9.272610e+04 |   4.78%
  32700 | 32701 |271996 |   7.8 |  23G|-9.716246e+04 |-9.272610e+04 |   4.78%
  32800 | 32801 |272231 |   7.8 |  23G|-9.716242e+04 |-9.272610e+04 |   4.78%
  32900 | 32901 |272466 |   7.8 |  23G|-9.716242e+04 |-9.272610e+04 |   4.78%
  33000 | 33001 |272705 |   7.7 |  23G|-9.716231e+04 |-9.272610e+04 |   4.78%
  33100 | 33101 |272934 |   7.7 |  23G|-9.716231e+04 |-9.272610e+04 |   4.78%
  33200 | 33201 |273172 |   7.7 |  23G|-9.716229e+04 |-9.272610e+04 |   4.78%
  33300 | 33301 |273406 |   7.7 |  23G|-9.716224e+04 |-9.272610e+04 |   4.78%
  33400 | 33401 |273643 |   7.7 |  23G|-9.716223e+04 |-9.272610e+04 |   4.78%
  33500 | 33501 |273882 |   7.7 |  23G|-9.716223e+04 |-9.272610e+04 |   4.78%
  33600 | 33601 |274121 |   7.6 |  23G|-9.716222e+04 |-9.272610e+04 |   4.78%
  33700 | 33701 |274358 |   7.6 |  23G|-9.716222e+04 |-9.272610e+04 |   4.78%
  node  | left  |LP iter|LP it/n| mem |  dualbound   | primalbound  |  gap   
  33800 | 33801 |274602 |   7.6 |  23G|-9.716209e+04 |-9.272610e+04 |   4.78%
  33900 | 33901 |274836 |   7.6 |  24G|-9.716209e+04 |-9.272610e+04 |   4.78%
  34000 | 34001 |275069 |   7.6 |  24G|-9.716205e+04 |-9.272610e+04 |   4.78%
  34100 | 34101 |275300 |   7.6 |  24G|-9.716205e+04 |-9.272610e+04 |   4.78%
  34200 | 34201 |275532 |   7.5 |  24G|-9.716205e+04 |-9.272610e+04 |   4.78%
  34300 | 34301 |275774 |   7.5 |  24G|-9.716202e+04 |-9.272610e+04 |   4.78%
  34400 | 34401 |276003 |   7.5 |  24G|-9.716202e+04 |-9.272610e+04 |   4.78%
  34500 | 34501 |276245 |   7.5 |  24G|-9.716199e+04 |-9.272610e+04 |   4.78%
  34600 | 34601 |276480 |   7.5 |  24G|-9.716199e+04 |-9.272610e+04 |   4.78%
  34700 | 34701 |276718 |   7.5 |  24G|-9.716196e+04 |-9.272610e+04 |   4.78%
  34800 | 34801 |276969 |   7.5 |  24G|-9.716196e+04 |-9.272610e+04 |   4.78%
  34900 | 34901 |277204 |   7.4 |  24G|-9.716186e+04 |-9.272610e+04 |   4.78%
  35000 | 35001 |277440 |   7.4 |  24G|-9.716184e+04 |-9.272610e+04 |   4.78%
  35100 | 35101 |277678 |   7.4 |  24G|-9.716181e+04 |-9.272610e+04 |   4.78%
  35200 | 35201 |277913 |   7.4 |  24G|-9.716181e+04 |-9.272610e+04 |   4.78%
  node  | left  |LP iter|LP it/n| mem |  dualbound   | primalbound  |  gap   
  35300 | 35301 |278151 |   7.4 |  24G|-9.716175e+04 |-9.272610e+04 |   4.78%
  35400 | 35401 |278383 |   7.4 |  24G|-9.716151e+04 |-9.272610e+04 |   4.78%
  35500 | 35501 |278621 |   7.4 |  24G|-9.716151e+04 |-9.272610e+04 |   4.78%
  35600 | 35601 |278856 |   7.3 |  24G|-9.716151e+04 |-9.272610e+04 |   4.78%
  35700 | 35701 |279088 |   7.3 |  24G|-9.716146e+04 |-9.272610e+04 |   4.78%
  35800 | 35801 |279331 |   7.3 |  24G|-9.716140e+04 |-9.272610e+04 |   4.78%
  35900 | 35901 |279578 |   7.3 |  24G|-9.716136e+04 |-9.272610e+04 |   4.78%
  36000 | 36001 |279829 |   7.3 |  24G|-9.716135e+04 |-9.272610e+04 |   4.78%
  36100 | 36101 |280075 |   7.3 |  24G|-9.716126e+04 |-9.272610e+04 |   4.78%
  36200 | 36201 |280305 |   7.3 |  24G|-9.716126e+04 |-9.272610e+04 |   4.78%
  36300 | 36301 |280540 |   7.2 |  24G|-9.716126e+04 |-9.272610e+04 |   4.78%
  36400 | 36401 |280784 |   7.2 |  24G|-9.716120e+04 |-9.272610e+04 |   4.78%
  36500 | 36501 |281014 |   7.2 |  24G|-9.716120e+04 |-9.272610e+04 |   4.78%
  36600 | 36601 |281248 |   7.2 |  25G|-9.716117e+04 |-9.272610e+04 |   4.78%
  36700 | 36701 |281480 |   7.2 |  25G|-9.716117e+04 |-9.272610e+04 |   4.78%
  node  | left  |LP iter|LP it/n| mem |  dualbound   | primalbound  |  gap   
  36800 | 36801 |281718 |   7.2 |  25G|-9.716115e+04 |-9.272610e+04 |   4.78%
  36900 | 36901 |281942 |   7.2 |  25G|-9.716115e+04 |-9.272610e+04 |   4.78%
  37000 | 37001 |282176 |   7.2 |  25G|-9.716112e+04 |-9.272610e+04 |   4.78%
  37100 | 37101 |282405 |   7.1 |  25G|-9.716112e+04 |-9.272610e+04 |   4.78%
  37200 | 37201 |282650 |   7.1 |  25G|-9.716108e+04 |-9.272610e+04 |   4.78%
  37300 | 37301 |282878 |   7.1 |  25G|-9.716108e+04 |-9.272610e+04 |   4.78%
  37400 | 37401 |283116 |   7.1 |  25G|-9.716107e+04 |-9.272610e+04 |   4.78%
  37500 | 37501 |283344 |   7.1 |  25G|-9.716107e+04 |-9.272610e+04 |   4.78%
  37600 | 37601 |283582 |   7.1 |  25G|-9.716099e+04 |-9.272610e+04 |   4.78%
  37700 | 37701 |283818 |   7.1 |  27G|-9.716096e+04 |-9.272610e+04 |   4.78%
  37800 | 37801 |284061 |   7.1 |  27G|-9.716083e+04 |-9.272610e+04 |   4.78%
  37900 | 37901 |284294 |   7.0 |  27G|-9.716083e+04 |-9.272610e+04 |   4.78%
  38000 | 38001 |284532 |   7.0 |  27G|-9.716083e+04 |-9.272610e+04 |   4.78%
  38100 | 38101 |284768 |   7.0 |  27G|-9.716083e+04 |-9.272610e+04 |   4.78%
  38200 | 38201 |285009 |   7.0 |  27G|-9.716071e+04 |-9.272610e+04 |   4.78%
  node  | left  |LP iter|LP it/n| mem |  dualbound   | primalbound  |  gap   
  38300 | 38301 |285238 |   7.0 |  27G|-9.716070e+04 |-9.272610e+04 |   4.78%
  38400 | 38401 |285470 |   7.0 |  27G|-9.716070e+04 |-9.272610e+04 |   4.78%
  38500 | 38501 |285707 |   7.0 |  27G|-9.716069e+04 |-9.272610e+04 |   4.78%
  38600 | 38601 |285930 |   7.0 |  28G|-9.716069e+04 |-9.272610e+04 |   4.78%
  38700 | 38701 |286163 |   6.9 |  28G|-9.716069e+04 |-9.272610e+04 |   4.78%
  38800 | 38801 |286407 |   6.9 |  28G|-9.716069e+04 |-9.272610e+04 |   4.78%
  38900 | 38901 |286644 |   6.9 |  28G|-9.716066e+04 |-9.272610e+04 |   4.78%
  39000 | 39001 |286874 |   6.9 |  28G|-9.716066e+04 |-9.272610e+04 |   4.78%
  39100 | 39101 |287106 |   6.9 |  28G|-9.716054e+04 |-9.272610e+04 |   4.78%
  39200 | 39201 |287339 |   6.9 |  28G|-9.716054e+04 |-9.272610e+04 |   4.78%
  39300 | 39301 |287576 |   6.9 |  28G|-9.716054e+04 |-9.272610e+04 |   4.78%
  39400 | 39401 |287809 |   6.9 |  28G|-9.716054e+04 |-9.272610e+04 |   4.78%
  39500 | 39501 |288044 |   6.9 |  28G|-9.716053e+04 |-9.272610e+04 |   4.78%
  39600 | 39601 |288281 |   6.8 |  28G|-9.716053e+04 |-9.272610e+04 |   4.78%
  39700 | 39701 |288520 |   6.8 |  28G|-9.716052e+04 |-9.272610e+04 |   4.78%
  node  | left  |LP iter|LP it/n| mem |  dualbound   | primalbound  |  gap   
  39800 | 39801 |288753 |   6.8 |  28G|-9.716047e+04 |-9.272610e+04 |   4.78%
  39900 | 39901 |288982 |   6.8 |  28G|-9.716047e+04 |-9.272610e+04 |   4.78%
  40000 | 40001 |289207 |   6.8 |  28G|-9.716047e+04 |-9.272610e+04 |   4.78%
  40100 | 40101 |289448 |   6.8 |  28G|-9.716046e+04 |-9.272610e+04 |   4.78%
  40200 | 40201 |289681 |   6.8 |  28G|-9.716042e+04 |-9.272610e+04 |   4.78%
  40300 | 40301 |289907 |   6.8 |  28G|-9.716038e+04 |-9.272610e+04 |   4.78%
  40400 | 40401 |290134 |   6.7 |  28G|-9.716038e+04 |-9.272610e+04 |   4.78%
  40500 | 40501 |290369 |   6.7 |  28G|-9.716038e+04 |-9.272610e+04 |   4.78%
  40600 | 40601 |290598 |   6.7 |  28G|-9.716038e+04 |-9.272610e+04 |   4.78%
  40700 | 40701 |290831 |   6.7 |  28G|-9.716034e+04 |-9.272610e+04 |   4.78%
